\ENCODING=ISO-8859-1
\Problem name: Noise_Opt_Model

Minimize
 obj: 310 G_01,01_00 + 200 G_01,02_00 + 310 G_02,01_00 + 200 G_02,02_00
      + 310 G_03,01_00 + 200 G_03,02_00 + 310 G_04,01_00 + 200 G_04,02_00
      + 310 G_05,01_00 + 200 G_05,02_00 + 310 G_06,01_00 + 200 G_06,02_00
      + 310 G_07,01_00 + 200 G_07,02_00 + 310 G_08,01_00 + 200 G_08,02_00
      + 310 G_09,01_00 + 200 G_09,02_00 + 310 G_10,01_00 + 200 G_10,02_00
Subject To
 NLSC_1_1:  1570 G_01,01_00 + 570 G_01,02_00 + 570 G_02,01_00 + 570 G_02,02_00
            + 570 G_03,01_00 + 570 G_03,02_00 + 570 G_04,01_00 + 570 G_04,02_00
            + 570 G_05,01_00 + 570 G_05,02_00 + 570 G_06,01_00 + 570 G_06,02_00
            + 570 G_07,01_00 + 570 G_07,02_00 + 570 G_08,01_00 + 570 G_08,02_00
            + 570 G_09,01_00 + 570 G_09,02_00 + 570 G_10,01_00 + 570 G_10,02_00
            - RgNLSC_1_1  = 0
 NLSC_2_1:  - 490 G_01,01_00 + 510 G_01,02_00 - 490 G_02,01_00 - 490 G_02,02_00
            - 490 G_03,01_00 - 490 G_03,02_00 - 490 G_04,01_00 - 490 G_04,02_00
            - 490 G_05,01_00 - 490 G_05,02_00 - 490 G_06,01_00 - 490 G_06,02_00
            - 490 G_07,01_00 - 490 G_07,02_00 - 490 G_08,01_00 - 490 G_08,02_00
            - 490 G_09,01_00 - 490 G_09,02_00 - 490 G_10,01_00 - 490 G_10,02_00
            - RgNLSC_2_1  = 0
 NLSC_3_1:  450 G_01,01_00 + 450 G_01,02_00 + 1450 G_02,01_00 + 450 G_02,02_00
            + 450 G_03,01_00 + 450 G_03,02_00 + 450 G_04,01_00 + 450 G_04,02_00
            + 450 G_05,01_00 + 450 G_05,02_00 + 450 G_06,01_00 + 450 G_06,02_00
            + 450 G_07,01_00 + 450 G_07,02_00 + 450 G_08,01_00 + 450 G_08,02_00
            + 450 G_09,01_00 + 450 G_09,02_00 + 450 G_10,01_00 + 450 G_10,02_00
            - RgNLSC_3_1  = 0
 NLSC_4_1:  - 450 G_01,01_00 - 450 G_01,02_00 - 450 G_02,01_00 + 550 G_02,02_00
            - 450 G_03,01_00 - 450 G_03,02_00 - 450 G_04,01_00 - 450 G_04,02_00
            - 450 G_05,01_00 - 450 G_05,02_00 - 450 G_06,01_00 - 450 G_06,02_00
            - 450 G_07,01_00 - 450 G_07,02_00 - 450 G_08,01_00 - 450 G_08,02_00
            - 450 G_09,01_00 - 450 G_09,02_00 - 450 G_10,01_00 - 450 G_10,02_00
            - RgNLSC_4_1  = 0
 NLSC_5_1:  530 G_01,01_00 + 530 G_01,02_00 + 530 G_02,01_00 + 530 G_02,02_00
            + 1530 G_03,01_00 + 530 G_03,02_00 + 530 G_04,01_00
            + 530 G_04,02_00 + 530 G_05,01_00 + 530 G_05,02_00 + 530 G_06,01_00
            + 530 G_06,02_00 + 530 G_07,01_00 + 530 G_07,02_00 + 530 G_08,01_00
            + 530 G_08,02_00 + 530 G_09,01_00 + 530 G_09,02_00 + 530 G_10,01_00
            + 530 G_10,02_00 - RgNLSC_5_1  = 0
 NLSC_6_1:  - 550 G_01,01_00 - 550 G_01,02_00 - 550 G_02,01_00 - 550 G_02,02_00
            - 550 G_03,01_00 + 450 G_03,02_00 - 550 G_04,01_00 - 550 G_04,02_00
            - 550 G_05,01_00 - 550 G_05,02_00 - 550 G_06,01_00 - 550 G_06,02_00
            - 550 G_07,01_00 - 550 G_07,02_00 - 550 G_08,01_00 - 550 G_08,02_00
            - 550 G_09,01_00 - 550 G_09,02_00 - 550 G_10,01_00 - 550 G_10,02_00
            - RgNLSC_6_1  = 0
 NLSC_7_1:  - 110 G_01,01_00 - 110 G_01,02_00 - 110 G_02,01_00 - 110 G_02,02_00
            - 110 G_03,01_00 - 110 G_03,02_00 + 890 G_04,01_00 - 110 G_04,02_00
            - 110 G_05,01_00 - 110 G_05,02_00 - 110 G_06,01_00 - 110 G_06,02_00
            - 110 G_07,01_00 - 110 G_07,02_00 - 110 G_08,01_00 - 110 G_08,02_00
            - 110 G_09,01_00 - 110 G_09,02_00 - 110 G_10,01_00 - 110 G_10,02_00
            - RgNLSC_7_1  = 0
 NLSC_8_1:  150 G_01,01_00 + 150 G_01,02_00 + 150 G_02,01_00 + 150 G_02,02_00
            + 150 G_03,01_00 + 150 G_03,02_00 + 150 G_04,01_00
            + 1150 G_04,02_00 + 150 G_05,01_00 + 150 G_05,02_00
            + 150 G_06,01_00 + 150 G_06,02_00 + 150 G_07,01_00 + 150 G_07,02_00
            + 150 G_08,01_00 + 150 G_08,02_00 + 150 G_09,01_00 + 150 G_09,02_00
            + 150 G_10,01_00 + 150 G_10,02_00 - RgNLSC_8_1  = 0
 NLSC_9_1:  - 770 G_01,01_00 - 770 G_01,02_00 - 770 G_02,01_00 - 770 G_02,02_00
            - 770 G_03,01_00 - 770 G_03,02_00 - 770 G_04,01_00 - 770 G_04,02_00
            + 230 G_05,01_00 - 770 G_05,02_00 - 770 G_06,01_00 - 770 G_06,02_00
            - 770 G_07,01_00 - 770 G_07,02_00 - 770 G_08,01_00 - 770 G_08,02_00
            - 770 G_09,01_00 - 770 G_09,02_00 - 770 G_10,01_00 - 770 G_10,02_00
            - RgNLSC_9_1  = 0
 NLSC_10_1: - 150 G_01,01_00 - 150 G_01,02_00 - 150 G_02,01_00 - 150 G_02,02_00
            - 150 G_03,01_00 - 150 G_03,02_00 - 150 G_04,01_00 - 150 G_04,02_00
            - 150 G_05,01_00 + 850 G_05,02_00 - 150 G_06,01_00 - 150 G_06,02_00
            - 150 G_07,01_00 - 150 G_07,02_00 - 150 G_08,01_00 - 150 G_08,02_00
            - 150 G_09,01_00 - 150 G_09,02_00 - 150 G_10,01_00 - 150 G_10,02_00
            - RgNLSC_10_1  = 0
 NLSC_1_2:  570 G_01,01_00 + 570 G_01,02_00 + 570 G_02,01_00 + 570 G_02,02_00
            + 570 G_03,01_00 + 570 G_03,02_00 + 570 G_04,01_00 + 570 G_04,02_00
            + 570 G_05,01_00 + 570 G_05,02_00 + 1570 G_06,01_00
            + 570 G_06,02_00 + 570 G_07,01_00 + 570 G_07,02_00 + 570 G_08,01_00
            + 570 G_08,02_00 + 570 G_09,01_00 + 570 G_09,02_00 + 570 G_10,01_00
            + 570 G_10,02_00 - RgNLSC_1_2  = 0
 NLSC_2_2:  - 490 G_01,01_00 - 490 G_01,02_00 - 490 G_02,01_00 - 490 G_02,02_00
            - 490 G_03,01_00 - 490 G_03,02_00 - 490 G_04,01_00 - 490 G_04,02_00
            - 490 G_05,01_00 - 490 G_05,02_00 - 490 G_06,01_00 + 510 G_06,02_00
            - 490 G_07,01_00 - 490 G_07,02_00 - 490 G_08,01_00 - 490 G_08,02_00
            - 490 G_09,01_00 - 490 G_09,02_00 - 490 G_10,01_00 - 490 G_10,02_00
            - RgNLSC_2_2  = 0
 NLSC_3_2:  450 G_01,01_00 + 450 G_01,02_00 + 450 G_02,01_00 + 450 G_02,02_00
            + 450 G_03,01_00 + 450 G_03,02_00 + 450 G_04,01_00 + 450 G_04,02_00
            + 450 G_05,01_00 + 450 G_05,02_00 + 450 G_06,01_00 + 450 G_06,02_00
            + 1450 G_07,01_00 + 450 G_07,02_00 + 450 G_08,01_00
            + 450 G_08,02_00 + 450 G_09,01_00 + 450 G_09,02_00 + 450 G_10,01_00
            + 450 G_10,02_00 - RgNLSC_3_2  = 0
 NLSC_4_2:  - 450 G_01,01_00 - 450 G_01,02_00 - 450 G_02,01_00 - 450 G_02,02_00
            - 450 G_03,01_00 - 450 G_03,02_00 - 450 G_04,01_00 - 450 G_04,02_00
            - 450 G_05,01_00 - 450 G_05,02_00 - 450 G_06,01_00 - 450 G_06,02_00
            - 450 G_07,01_00 + 550 G_07,02_00 - 450 G_08,01_00 - 450 G_08,02_00
            - 450 G_09,01_00 - 450 G_09,02_00 - 450 G_10,01_00 - 450 G_10,02_00
            - RgNLSC_4_2  = 0
 NLSC_5_2:  530 G_01,01_00 + 530 G_01,02_00 + 530 G_02,01_00 + 530 G_02,02_00
            + 530 G_03,01_00 + 530 G_03,02_00 + 530 G_04,01_00 + 530 G_04,02_00
            + 530 G_05,01_00 + 530 G_05,02_00 + 530 G_06,01_00 + 530 G_06,02_00
            + 530 G_07,01_00 + 530 G_07,02_00 + 1530 G_08,01_00
            + 530 G_08,02_00 + 530 G_09,01_00 + 530 G_09,02_00 + 530 G_10,01_00
            + 530 G_10,02_00 - RgNLSC_5_2  = 0
 NLSC_6_2:  - 550 G_01,01_00 - 550 G_01,02_00 - 550 G_02,01_00 - 550 G_02,02_00
            - 550 G_03,01_00 - 550 G_03,02_00 - 550 G_04,01_00 - 550 G_04,02_00
            - 550 G_05,01_00 - 550 G_05,02_00 - 550 G_06,01_00 - 550 G_06,02_00
            - 550 G_07,01_00 - 550 G_07,02_00 - 550 G_08,01_00 + 450 G_08,02_00
            - 550 G_09,01_00 - 550 G_09,02_00 - 550 G_10,01_00 - 550 G_10,02_00
            - RgNLSC_6_2  = 0
 NLSC_7_2:  - 110 G_01,01_00 - 110 G_01,02_00 - 110 G_02,01_00 - 110 G_02,02_00
            - 110 G_03,01_00 - 110 G_03,02_00 - 110 G_04,01_00 - 110 G_04,02_00
            - 110 G_05,01_00 - 110 G_05,02_00 - 110 G_06,01_00 - 110 G_06,02_00
            - 110 G_07,01_00 - 110 G_07,02_00 - 110 G_08,01_00 - 110 G_08,02_00
            + 890 G_09,01_00 - 110 G_09,02_00 - 110 G_10,01_00 - 110 G_10,02_00
            - RgNLSC_7_2  = 0
 NLSC_8_2:  150 G_01,01_00 + 150 G_01,02_00 + 150 G_02,01_00 + 150 G_02,02_00
            + 150 G_03,01_00 + 150 G_03,02_00 + 150 G_04,01_00 + 150 G_04,02_00
            + 150 G_05,01_00 + 150 G_05,02_00 + 150 G_06,01_00 + 150 G_06,02_00
            + 150 G_07,01_00 + 150 G_07,02_00 + 150 G_08,01_00 + 150 G_08,02_00
            + 150 G_09,01_00 + 1150 G_09,02_00 + 150 G_10,01_00
            + 150 G_10,02_00 - RgNLSC_8_2  = 0
 NLSC_9_2:  - 770 G_01,01_00 - 770 G_01,02_00 - 770 G_02,01_00 - 770 G_02,02_00
            - 770 G_03,01_00 - 770 G_03,02_00 - 770 G_04,01_00 - 770 G_04,02_00
            - 770 G_05,01_00 - 770 G_05,02_00 - 770 G_06,01_00 - 770 G_06,02_00
            - 770 G_07,01_00 - 770 G_07,02_00 - 770 G_08,01_00 - 770 G_08,02_00
            - 770 G_09,01_00 - 770 G_09,02_00 + 230 G_10,01_00 - 770 G_10,02_00
            - RgNLSC_9_2  = 0
 NLSC_10_2: - 150 G_01,01_00 - 150 G_01,02_00 - 150 G_02,01_00 - 150 G_02,02_00
            - 150 G_03,01_00 - 150 G_03,02_00 - 150 G_04,01_00 - 150 G_04,02_00
            - 150 G_05,01_00 - 150 G_05,02_00 - 150 G_06,01_00 - 150 G_06,02_00
            - 150 G_07,01_00 - 150 G_07,02_00 - 150 G_08,01_00 - 150 G_08,02_00
            - 150 G_09,01_00 - 150 G_09,02_00 - 150 G_10,01_00 + 850 G_10,02_00
            - RgNLSC_10_2  = 0
Bounds
      G_01,01_00 >= 0
      G_01,02_00 >= 0
      G_02,01_00 >= 0
      G_02,02_00 >= 0
      G_03,01_00 >= 0
      G_03,02_00 >= 0
      G_04,01_00 >= 0
      G_04,02_00 >= 0
      G_05,01_00 >= 0
      G_05,02_00 >= 0
      G_06,01_00 >= 0
      G_06,02_00 >= 0
      G_07,01_00 >= 0
      G_07,02_00 >= 0
      G_08,01_00 >= 0
      G_08,02_00 >= 0
      G_09,01_00 >= 0
      G_09,02_00 >= 0
      G_10,01_00 >= 0
      G_10,02_00 >= 0
 0 <= RgNLSC_1_1 <= 1000
 0 <= RgNLSC_2_1 <= 1000
 0 <= RgNLSC_3_1 <= 1000
 0 <= RgNLSC_4_1 <= 1000
 0 <= RgNLSC_5_1 <= 1000
 0 <= RgNLSC_6_1 <= 1000
 0 <= RgNLSC_7_1 <= 1000
 0 <= RgNLSC_8_1 <= 1000
 0 <= RgNLSC_9_1 <= 1000
 0 <= RgNLSC_10_1 <= 1000
 0 <= RgNLSC_1_2 <= 1000
 0 <= RgNLSC_2_2 <= 1000
 0 <= RgNLSC_3_2 <= 1000
 0 <= RgNLSC_4_2 <= 1000
 0 <= RgNLSC_5_2 <= 1000
 0 <= RgNLSC_6_2 <= 1000
 0 <= RgNLSC_7_2 <= 1000
 0 <= RgNLSC_8_2 <= 1000
 0 <= RgNLSC_9_2 <= 1000
 0 <= RgNLSC_10_2 <= 1000
Generals
 G_01,01_00  G_01,02_00  G_02,01_00  G_02,02_00  G_03,01_00  G_03,02_00 
 G_04,01_00  G_04,02_00  G_05,01_00  G_05,02_00  G_06,01_00  G_06,02_00 
 G_07,01_00  G_07,02_00  G_08,01_00  G_08,02_00  G_09,01_00  G_09,02_00 
 G_10,01_00  G_10,02_00 
End
